
se = 80; % nombre de sessions
gr = 40; % nombre de grups de treball
cl = 12; % nombre de slots
minPapersPerSlot = 3; % minim nombre d'articles per sessio i slot
maxSesionsPar = 20; % maxim nombre de sessions paraleles

npMax = [4, 6, 5, 3, 5, 3, 5, 6, 5, 6, 4, 3]; % nombre maxim de papers per slot

np = [10, 14, 17, 10, 10, 6, 11, 8, 13, 3, 17, 15, 5, 5, 14, 7, 12, 7, 13, 9, 12, 12, 13, 19, 13, 3, 17, 11, 10, 5, 16, 15, 5, 16, 12, 7, 9, 14, 13, 11, 11, 14, 13, 14, 13, 4, 6, 10, 3, 9, 9, 15, 8, 3, 12, 19, 3, 7, 9, 4, 9, 4, 3, 9, 14, 4, 3, 3, 16, 6, 3, 3, 11, 13, 3, 6, 13, 7, 3, 12]; % nombre de papers acceptats a cada sessio

WG = [ {1,2,3}, {4}, {5}, {6}, {7}, {8}, {}, {9,10,11}, {12}, {}, {}, {}, {13}, {14}, {}, {15}, {16}, {}, {17,18}, {19,20,21}, {22}, {23}, {}, {}, {24}, {25}, {}, {}, {26,27}, {28}, {29}, {30}, {31}, {32,33,34}, {35,36}, {37}, {}, {38}, {39}, {40}, {1}, {}, {}, {2}, {3}, {4}, {5}, {6}, {7}, {8,9}, {}, {10}, {11,12,13}, {14}, {}, {}, {}, {15,16,17}, {}, {18}, {}, {}, {}, {19}, {}, {20}, {21}, {22,23}, {}, {24}, {25}, {}, {26}, {}, {27,28,29}, {30,31}, {32}, {}, {33}, {34} ]; % grups per sessio

